131 195 130 102 14 190 145 39 49 17 179 16 148 46 125 143 66 119 132 34 36 41 50 47 13 187 184 161 139 52 172 158 154 182 103 153 31 18 88 138 120 162 123 8 160 170 116 69 71 38 2 152 191 183 59 65 24 72 144 85 9 128 98 100 112 29 90 105 97 106 189 67 194 93 180 156 193 114 150 115 55 165 124 166 44 33 178 129 108 20 75 79 78 113 26 176 28 122 54 186 127 107 101 177 81 96 74 60 155 61 35 174 63 30 73 157 40 83 42 43 199 22 53 167 19 118 70 104 185 134 23 87 169 0 192 57 111 146 10 37 147 51 175 1 151 68 149 142 77 89 91 4 95 45 32 92 109 56 117 133 137 110 121 181 136 164 62 135 48 94 86 126 27 58 7 25 198 11 168 12 21 196 84 80 64 163 197 5 140 15 171 76 82 6 99 141 159 3 188 173 

